
Gurobi 11.0.1 (win64) logging started Fri Mar 15 23:23:09 2024

Set parameter LogFile to value "res/logfile/neos-4413714-turialog.txt"
Gurobi Optimizer version 11.0.1 build v11.0.1rc0 (win64 - Windows 11.0 (22621.2))

CPU model: AMD Ryzen Threadripper PRO 5975WX 32-Cores, instruction set [SSE2|AVX|AVX2]
Thread count: 32 physical cores, 64 logical processors, using up to 10 threads

Optimize a model with 193257 rows, 190402 columns and 1331764 nonzeros
Model fingerprint: 0xce9baa4f
Variable types: 201 continuous, 190201 integer (190201 binary)
Coefficient statistics:
  Matrix range     [1e+00, 1e+05]
  Objective range  [1e+00, 1e+00]
  Bounds range     [1e+00, 5e+05]
  RHS range        [1e+00, 9e+08]
Presolve removed 189802 rows and 0 columns
Presolve time: 0.09s
Presolved: 3455 rows, 190402 columns, 952160 nonzeros
Crushed 97284 out of 189802 user cuts to presolved model
Variable types: 201 continuous, 190201 integer (190201 binary)
Deterministic concurrent LP optimizer: primal simplex, dual simplex, and barrier
Showing barrier log only...

Root barrier log...

Ordering time: 0.05s

Barrier statistics:
 Dense cols : 1
 AA' NZ     : 7.521e+05
 Factor NZ  : 8.762e+05 (roughly 90 MB of memory)
 Factor Ops : 3.564e+08 (less than 1 second per iteration)
 Threads    : 7

                  Objective                Residual
Iter       Primal          Dual         Primal    Dual     Compl     Time
   0   5.73304585e+07 -6.61845271e+08  1.90e+09 9.75e-03  2.80e+06    32s
   1   6.39667624e+07 -4.25356719e+08  1.06e+09 1.86e-01  1.59e+06    32s
   2   1.42854128e+03 -1.83850372e+08  5.13e+07 4.73e-14  8.03e+04    32s
   3   1.26441133e+03 -5.91649534e+06  1.09e+04 4.42e-14  3.24e+01    32s
   4   3.13603050e+03 -3.74532386e+05  1.18e+03 2.38e-13  2.82e+00    32s
   5   6.49697077e+02 -7.74822171e+04  5.48e+01 2.35e-14  2.84e-01    33s
   6   3.81342112e+02 -1.48561923e+04  1.12e+01 1.33e-15  5.02e-02    33s
   7   3.42664741e+02 -8.88999313e+03  4.80e+00 1.33e-15  2.72e-02    33s
   8   3.22431776e+02 -5.26912972e+03  2.81e+00 8.88e-16  1.58e-02    33s
   9   3.06162066e+02 -3.85568713e+03  2.07e+00 7.77e-16  1.15e-02    33s
  10   2.74814569e+02 -2.42931958e+03  1.29e+00 5.55e-16  7.35e-03    33s
  11   2.32552315e+02 -1.02087258e+03  7.16e-01 3.30e-15  3.35e-03    33s
  12   2.00174589e+02 -7.19835528e+02  3.61e-01 2.25e-14  2.43e-03    33s
  13   1.69255121e+02 -4.25565821e+02  1.82e-01 8.94e-15  1.57e-03    33s
  14   1.65793765e+02 -3.09083960e+02  1.69e-01 1.53e-16  1.25e-03    33s
  15   1.45418292e+02 -2.34486617e+02  9.34e-02 1.25e-16  9.97e-04    33s
  16   1.29866921e+02 -1.73305833e+02  6.21e-02 1.11e-16  7.95e-04    33s
  17   1.07604751e+02 -9.89902890e+01  2.55e-02 9.71e-17  5.41e-04    33s
  18   9.26030934e+01 -5.31259147e+01  1.18e-02 6.94e-17  3.82e-04    33s
  19   8.81377879e+01 -3.20202673e+01  9.66e-03 5.55e-17  3.15e-04    33s
  20   8.28903930e+01 -2.36162951e+01  7.19e-03 5.12e-15  2.79e-04    33s
  21   7.47566755e+01 -1.29051011e+01  4.57e-03 4.16e-17  2.29e-04    33s
  22   6.82673340e+01 -2.23270076e+00  2.86e-03 4.16e-17  1.85e-04    33s
  23   6.24411281e+01  1.49718684e+01  1.63e-03 3.47e-17  1.24e-04    33s
  24   5.87364634e+01  1.82783751e+01  1.11e-03 1.17e-16  1.06e-04    33s
  25   5.53295745e+01  2.34215634e+01  6.87e-04 4.82e-15  8.35e-05    33s
  26   5.34534294e+01  2.78356388e+01  5.11e-04 3.40e-15  6.70e-05    33s
  27   5.19832976e+01  3.10491396e+01  3.93e-04 6.25e-17  5.48e-05    33s
  28   5.07984529e+01  3.28892203e+01  3.18e-04 1.51e-14  4.69e-05    33s
  29   4.99793742e+01  3.44450280e+01  2.67e-04 1.14e-14  4.07e-05    33s
  30   4.89188751e+01  3.54647021e+01  2.14e-04 5.21e-15  3.52e-05    34s
  31   4.80074700e+01  3.70537599e+01  1.70e-04 2.36e-14  2.87e-05    34s
  32   4.73823402e+01  3.78232293e+01  1.38e-04 1.32e-14  2.50e-05    34s
  33   4.74641950e+01  3.79583993e+01  1.06e-04 1.46e-14  2.49e-05    34s
  34   4.66384124e+01  3.91857891e+01  7.78e-05 1.82e-14  1.95e-05    34s
  35   4.60931604e+01  3.98013255e+01  6.38e-05 1.39e-16  1.65e-05    34s
  36   4.59547949e+01  4.00014173e+01  5.75e-05 2.44e-15  1.56e-05    34s
  37   4.58539313e+01  4.06667512e+01  5.20e-05 1.11e-16  1.36e-05    34s
  38   4.55260902e+01  4.08984058e+01  4.28e-05 1.39e-16  1.21e-05    34s
  39   4.54630374e+01  4.12981505e+01  3.96e-05 4.54e-12  1.09e-05    34s
  40   4.51706191e+01  4.14736577e+01  3.11e-05 2.06e-11  9.67e-06    34s
  41   4.51135441e+01  4.16301132e+01  2.93e-05 3.09e-11  9.12e-06    34s
  42   4.49311308e+01  4.18079296e+01  2.41e-05 5.23e-11  8.17e-06    34s
  43   4.48405664e+01  4.22313078e+01  2.17e-05 1.05e-10  6.83e-06    34s
  44   4.47660089e+01  4.22720748e+01  1.70e-05 1.21e-10  6.53e-06    34s
  45   4.47141973e+01  4.23504085e+01  1.60e-05 1.40e-10  6.19e-06    34s
  46   4.46051012e+01  4.25770781e+01  1.34e-05 1.88e-10  5.31e-06    34s
  47   4.44730249e+01  4.26823320e+01  1.07e-05 2.23e-10  4.69e-06    34s
  48   4.45130608e+01  4.27180327e+01  2.85e-09 2.22e-10  4.70e-06    34s
  49   4.44139751e+01  4.29201724e+01  2.31e-09 1.90e-10  3.91e-06    34s
  50   4.43664770e+01  4.29725125e+01  1.97e-09 1.56e-10  3.65e-06    34s
  51   4.43526854e+01  4.30551513e+01  1.99e-09 1.63e-10  3.40e-06    35s
  52   4.43348575e+01  4.31255032e+01  1.57e-09 1.51e-10  3.16e-06    35s
  53   4.42401248e+01  4.32566327e+01  1.16e-09 1.61e-10  2.57e-06    35s
  54   4.42285761e+01  4.32996515e+01  9.34e-10 1.52e-10  2.43e-06    35s
  55   4.41713864e+01  4.33881136e+01  7.07e-10 1.32e-10  2.05e-06    35s
  56   4.41669983e+01  4.34297407e+01  6.50e-10 1.24e-10  1.93e-06    35s
  57   4.41149001e+01  4.35087720e+01  4.86e-10 1.05e-10  1.59e-06    35s
  58   4.41168739e+01  4.35358050e+01  4.42e-10 9.92e-11  1.52e-06    35s
  59   4.41108633e+01  4.36492477e+01  4.23e-10 7.39e-11  1.21e-06    35s
  60   4.40886040e+01  4.36764992e+01  3.54e-10 6.73e-11  1.08e-06    35s
  61   4.40355644e+01  4.37939509e+01  1.86e-10 2.35e-10  6.32e-07    35s
  62   4.40362510e+01  4.38032436e+01  1.67e-10 2.25e-10  6.10e-07    35s
  63   4.40246100e+01  4.38276072e+01  1.36e-10 1.90e-10  5.16e-07    35s
  64   4.40312187e+01  4.38359025e+01  1.16e-10 1.80e-10  5.11e-07    35s
  65   4.40215233e+01  4.38698319e+01  9.80e-11 1.32e-10  3.97e-07    35s
  66   4.39946225e+01  4.38850854e+01  1.48e-10 1.02e-10  2.87e-07    35s
  67   4.39875994e+01  4.38904618e+01  1.04e-10 9.54e-11  2.54e-07    35s
  68   4.39722420e+01  4.39252551e+01  3.88e-11 1.61e-10  1.23e-07    35s
  69   4.39694473e+01  4.39401086e+01  8.45e-11 1.32e-10  7.68e-08    36s
  70   4.39678302e+01  4.39409757e+01  2.90e-10 1.29e-10  7.03e-08    36s
  71   4.39664741e+01  4.39511656e+01  3.32e-10 1.16e-10  4.01e-08    36s
  72   4.39654481e+01  4.39543403e+01  2.86e-10 6.76e-11  2.91e-08    36s
  73   4.39616883e+01  4.39565465e+01  1.23e-10 3.09e-11  1.35e-08    36s
  74   4.39595262e+01  4.39581643e+01  3.11e-10 1.58e-11  3.57e-09    36s
  75   4.39587972e+01  4.39585023e+01  3.47e-09 3.27e-11  7.76e-10    36s
  76   4.39586097e+01  4.39585852e+01  1.07e-10 2.19e-11  6.58e-11    36s
  77   4.39585991e+01  4.39585972e+01  9.32e-12 4.07e-12  5.23e-12    36s
  78   4.39585989e+01  4.39585989e+01  1.67e-12 9.80e-13  7.89e-14    36s

Barrier solved model in 78 iterations and 35.83 seconds (8.81 work units)
Optimal objective 4.39585989e+01


Root crossover log...

     806 DPushes remaining with DInf 5.9326835e-05                36s
       0 DPushes remaining with DInf 1.8242845e+03                36s

     316 PPushes remaining with PInf 6.4425896e-03                36s
       0 PPushes remaining with PInf 0.0000000e+00                36s

  Push phase complete: Pinf 0.0000000e+00, Dinf 7.3609006e+00     36s


Root simplex log...

Iteration    Objective       Primal Inf.    Dual Inf.      Time
    1125    4.3959112e+01   0.000000e+00   7.360901e+00     36s
    1150    4.3958599e+01   0.000000e+00   0.000000e+00     36s
Concurrent spin time: 0.00s

Solved with barrier

Root relaxation: objective 4.395860e+01, 1150 iterations, 4.31 seconds (6.27 work units)
Total elapsed time = 36.05s (DegenMoves)

    Nodes    |    Current Node    |     Objective Bounds      |     Work
 Expl Unexpl |  Obj  Depth IntInf | Incumbent    BestBd   Gap | It/Node Time

     0     0   43.95860    0 1966          -   43.95860      -     -   38s
H    0     0                     498.4590293   43.95860  91.2%     -   38s
H    0     0                      45.5210655   43.95860  3.43%     -   40s
H    0     0                      45.3701670   43.95860  3.11%     -   40s
     0     0 infeasible    0        45.37017   45.37017  0.00%     -   40s

Cutting planes:
  Cover: 93
  Clique: 588
  MIR: 69
  StrongCG: 1
  Zero half: 20
  RLT: 17

Explored 1 nodes (2276 simplex iterations) in 40.69 seconds (11.73 work units)
Thread count was 10 (of 64 available processors)

Solution count 3: 45.3702 45.5211 498.459 

Optimal solution found (tolerance 1.00e-04)
Best objective 4.537016702000e+01, best bound 4.537016702000e+01, gap 0.0000%

User-callback calls 522, time in user-callback 0.00 sec
